33 33
23
3 3 7 30
3 4 30 14
3 5 13 8
3 6 10 17
3 7 13 26
3 8 13 0
3 9 4 0
3 10 10 23
3 13 13 13
3 14 30 0
3 15 30 18
3 17 10 0
3 24 4 9
3 30 7 0
3 33 27 0
4 3 23 14
4 4 0 29
4 6 23 27
4 10 23 17
4 12 0 17
4 14 23 0
4 17 0 0
7 33 16 0
